(set-info :smt-lib-version 2.6)
(set-logic QF_BV)
(set-info :source |
Number of leading zeros nlz(x) algorithm, working both ends at the same time
From the book "Hacker's delight" by Henry S. Warren, Jr., page 79
We cross-check it with an obvious method of counting leading zeros:

s = 0;
for (i = BW - 1; i >= 0; i--)
  if (x & (1 << i))
    break;
  else
    s++;

Contributed by Robert Brummayer (robert.brummayer@gmail.com)
|)
(set-info :category "crafted")
(set-info :status unsat)
(declare-fun result1init () (_ BitVec 64))
(declare-fun x () (_ BitVec 64))
(assert (let ((?v_93 (ite (= x (_ bv0 64)) (_ bv1 1) (_ bv0 1))) (?v_92 (ite (bvslt x (_ bv0 64)) (_ bv1 1) (_ bv0 1)))) (let ((?v_97 (ite (= (_ bv1 1) (_ bv0 1)) result1init (ite (= (_ bv1 1) ?v_92) (_ bv0 64) (ite (= (_ bv1 1) ?v_93) (bvsub (_ bv64 64) (_ bv0 64)) result1init)))) (?v_91 (bvor (_ bv0 1) (bvor ?v_92 ?v_93))) (?v_96 (bvadd (_ bv0 64) (_ bv1 64))) (?v_0 ((_ zero_extend 58) (_ bv1 6)))) (let ((?v_1 (bvshl x ?v_0)) (?v_2 (bvashr x ?v_0))) (let ((?v_95 (ite (= ?v_2 (_ bv0 64)) (_ bv1 1) (_ bv0 1))) (?v_94 (ite (bvslt ?v_1 (_ bv0 64)) (_ bv1 1) (_ bv0 1)))) (let ((?v_101 (ite (= (_ bv1 1) ?v_91) ?v_97 (ite (= (_ bv1 1) ?v_94) ?v_96 (ite (= (_ bv1 1) ?v_95) (bvsub (_ bv64 64) ?v_96) ?v_97)))) (?v_90 (bvor ?v_91 (bvor ?v_94 ?v_95))) (?v_100 (bvadd ?v_96 (_ bv1 64))) (?v_3 (bvshl ?v_1 ?v_0)) (?v_4 (bvashr ?v_2 ?v_0))) (let ((?v_99 (ite (= ?v_4 (_ bv0 64)) (_ bv1 1) (_ bv0 1))) (?v_98 (ite (bvslt ?v_3 (_ bv0 64)) (_ bv1 1) (_ bv0 1)))) (let ((?v_105 (ite (= (_ bv1 1) ?v_90) ?v_101 (ite (= (_ bv1 1) ?v_98) ?v_100 (ite (= (_ bv1 1) ?v_99) (bvsub (_ bv64 64) ?v_100) ?v_101)))) (?v_89 (bvor ?v_90 (bvor ?v_98 ?v_99))) (?v_104 (bvadd ?v_100 (_ bv1 64))) (?v_5 (bvshl ?v_3 ?v_0)) (?v_6 (bvashr ?v_4 ?v_0))) (let ((?v_103 (ite (= ?v_6 (_ bv0 64)) (_ bv1 1) (_ bv0 1))) (?v_102 (ite (bvslt ?v_5 (_ bv0 64)) (_ bv1 1) (_ bv0 1)))) (let ((?v_109 (ite (= (_ bv1 1) ?v_89) ?v_105 (ite (= (_ bv1 1) ?v_102) ?v_104 (ite (= (_ bv1 1) ?v_103) (bvsub (_ bv64 64) ?v_104) ?v_105)))) (?v_88 (bvor ?v_89 (bvor ?v_102 ?v_103))) (?v_108 (bvadd ?v_104 (_ bv1 64))) (?v_7 (bvshl ?v_5 ?v_0)) (?v_8 (bvashr ?v_6 ?v_0))) (let ((?v_107 (ite (= ?v_8 (_ bv0 64)) (_ bv1 1) (_ bv0 1))) (?v_106 (ite (bvslt ?v_7 (_ bv0 64)) (_ bv1 1) (_ bv0 1)))) (let ((?v_113 (ite (= (_ bv1 1) ?v_88) ?v_109 (ite (= (_ bv1 1) ?v_106) ?v_108 (ite (= (_ bv1 1) ?v_107) (bvsub (_ bv64 64) ?v_108) ?v_109)))) (?v_87 (bvor ?v_88 (bvor ?v_106 ?v_107))) (?v_112 (bvadd ?v_108 (_ bv1 64))) (?v_9 (bvshl ?v_7 ?v_0)) (?v_10 (bvashr ?v_8 ?v_0))) (let ((?v_111 (ite (= ?v_10 (_ bv0 64)) (_ bv1 1) (_ bv0 1))) (?v_110 (ite (bvslt ?v_9 (_ bv0 64)) (_ bv1 1) (_ bv0 1)))) (let ((?v_117 (ite (= (_ bv1 1) ?v_87) ?v_113 (ite (= (_ bv1 1) ?v_110) ?v_112 (ite (= (_ bv1 1) ?v_111) (bvsub (_ bv64 64) ?v_112) ?v_113)))) (?v_86 (bvor ?v_87 (bvor ?v_110 ?v_111))) (?v_116 (bvadd ?v_112 (_ bv1 64))) (?v_11 (bvshl ?v_9 ?v_0)) (?v_12 (bvashr ?v_10 ?v_0))) (let ((?v_115 (ite (= ?v_12 (_ bv0 64)) (_ bv1 1) (_ bv0 1))) (?v_114 (ite (bvslt ?v_11 (_ bv0 64)) (_ bv1 1) (_ bv0 1)))) (let ((?v_121 (ite (= (_ bv1 1) ?v_86) ?v_117 (ite (= (_ bv1 1) ?v_114) ?v_116 (ite (= (_ bv1 1) ?v_115) (bvsub (_ bv64 64) ?v_116) ?v_117)))) (?v_85 (bvor ?v_86 (bvor ?v_114 ?v_115))) (?v_120 (bvadd ?v_116 (_ bv1 64))) (?v_13 (bvshl ?v_11 ?v_0)) (?v_14 (bvashr ?v_12 ?v_0))) (let ((?v_119 (ite (= ?v_14 (_ bv0 64)) (_ bv1 1) (_ bv0 1))) (?v_118 (ite (bvslt ?v_13 (_ bv0 64)) (_ bv1 1) (_ bv0 1)))) (let ((?v_125 (ite (= (_ bv1 1) ?v_85) ?v_121 (ite (= (_ bv1 1) ?v_118) ?v_120 (ite (= (_ bv1 1) ?v_119) (bvsub (_ bv64 64) ?v_120) ?v_121)))) (?v_84 (bvor ?v_85 (bvor ?v_118 ?v_119))) (?v_124 (bvadd ?v_120 (_ bv1 64))) (?v_15 (bvshl ?v_13 ?v_0)) (?v_16 (bvashr ?v_14 ?v_0))) (let ((?v_123 (ite (= ?v_16 (_ bv0 64)) (_ bv1 1) (_ bv0 1))) (?v_122 (ite (bvslt ?v_15 (_ bv0 64)) (_ bv1 1) (_ bv0 1)))) (let ((?v_129 (ite (= (_ bv1 1) ?v_84) ?v_125 (ite (= (_ bv1 1) ?v_122) ?v_124 (ite (= (_ bv1 1) ?v_123) (bvsub (_ bv64 64) ?v_124) ?v_125)))) (?v_83 (bvor ?v_84 (bvor ?v_122 ?v_123))) (?v_128 (bvadd ?v_124 (_ bv1 64))) (?v_17 (bvshl ?v_15 ?v_0)) (?v_18 (bvashr ?v_16 ?v_0))) (let ((?v_127 (ite (= ?v_18 (_ bv0 64)) (_ bv1 1) (_ bv0 1))) (?v_126 (ite (bvslt ?v_17 (_ bv0 64)) (_ bv1 1) (_ bv0 1)))) (let ((?v_133 (ite (= (_ bv1 1) ?v_83) ?v_129 (ite (= (_ bv1 1) ?v_126) ?v_128 (ite (= (_ bv1 1) ?v_127) (bvsub (_ bv64 64) ?v_128) ?v_129)))) (?v_82 (bvor ?v_83 (bvor ?v_126 ?v_127))) (?v_132 (bvadd ?v_128 (_ bv1 64))) (?v_19 (bvshl ?v_17 ?v_0)) (?v_20 (bvashr ?v_18 ?v_0))) (let ((?v_131 (ite (= ?v_20 (_ bv0 64)) (_ bv1 1) (_ bv0 1))) (?v_130 (ite (bvslt ?v_19 (_ bv0 64)) (_ bv1 1) (_ bv0 1)))) (let ((?v_137 (ite (= (_ bv1 1) ?v_82) ?v_133 (ite (= (_ bv1 1) ?v_130) ?v_132 (ite (= (_ bv1 1) ?v_131) (bvsub (_ bv64 64) ?v_132) ?v_133)))) (?v_81 (bvor ?v_82 (bvor ?v_130 ?v_131))) (?v_136 (bvadd ?v_132 (_ bv1 64))) (?v_21 (bvshl ?v_19 ?v_0)) (?v_22 (bvashr ?v_20 ?v_0))) (let ((?v_135 (ite (= ?v_22 (_ bv0 64)) (_ bv1 1) (_ bv0 1))) (?v_134 (ite (bvslt ?v_21 (_ bv0 64)) (_ bv1 1) (_ bv0 1)))) (let ((?v_141 (ite (= (_ bv1 1) ?v_81) ?v_137 (ite (= (_ bv1 1) ?v_134) ?v_136 (ite (= (_ bv1 1) ?v_135) (bvsub (_ bv64 64) ?v_136) ?v_137)))) (?v_80 (bvor ?v_81 (bvor ?v_134 ?v_135))) (?v_140 (bvadd ?v_136 (_ bv1 64))) (?v_23 (bvshl ?v_21 ?v_0)) (?v_24 (bvashr ?v_22 ?v_0))) (let ((?v_139 (ite (= ?v_24 (_ bv0 64)) (_ bv1 1) (_ bv0 1))) (?v_138 (ite (bvslt ?v_23 (_ bv0 64)) (_ bv1 1) (_ bv0 1)))) (let ((?v_145 (ite (= (_ bv1 1) ?v_80) ?v_141 (ite (= (_ bv1 1) ?v_138) ?v_140 (ite (= (_ bv1 1) ?v_139) (bvsub (_ bv64 64) ?v_140) ?v_141)))) (?v_79 (bvor ?v_80 (bvor ?v_138 ?v_139))) (?v_144 (bvadd ?v_140 (_ bv1 64))) (?v_25 (bvshl ?v_23 ?v_0)) (?v_26 (bvashr ?v_24 ?v_0))) (let ((?v_143 (ite (= ?v_26 (_ bv0 64)) (_ bv1 1) (_ bv0 1))) (?v_142 (ite (bvslt ?v_25 (_ bv0 64)) (_ bv1 1) (_ bv0 1)))) (let ((?v_149 (ite (= (_ bv1 1) ?v_79) ?v_145 (ite (= (_ bv1 1) ?v_142) ?v_144 (ite (= (_ bv1 1) ?v_143) (bvsub (_ bv64 64) ?v_144) ?v_145)))) (?v_78 (bvor ?v_79 (bvor ?v_142 ?v_143))) (?v_148 (bvadd ?v_144 (_ bv1 64))) (?v_27 (bvshl ?v_25 ?v_0)) (?v_28 (bvashr ?v_26 ?v_0))) (let ((?v_147 (ite (= ?v_28 (_ bv0 64)) (_ bv1 1) (_ bv0 1))) (?v_146 (ite (bvslt ?v_27 (_ bv0 64)) (_ bv1 1) (_ bv0 1)))) (let ((?v_153 (ite (= (_ bv1 1) ?v_78) ?v_149 (ite (= (_ bv1 1) ?v_146) ?v_148 (ite (= (_ bv1 1) ?v_147) (bvsub (_ bv64 64) ?v_148) ?v_149)))) (?v_77 (bvor ?v_78 (bvor ?v_146 ?v_147))) (?v_152 (bvadd ?v_148 (_ bv1 64))) (?v_29 (bvshl ?v_27 ?v_0)) (?v_30 (bvashr ?v_28 ?v_0))) (let ((?v_151 (ite (= ?v_30 (_ bv0 64)) (_ bv1 1) (_ bv0 1))) (?v_150 (ite (bvslt ?v_29 (_ bv0 64)) (_ bv1 1) (_ bv0 1)))) (let ((?v_157 (ite (= (_ bv1 1) ?v_77) ?v_153 (ite (= (_ bv1 1) ?v_150) ?v_152 (ite (= (_ bv1 1) ?v_151) (bvsub (_ bv64 64) ?v_152) ?v_153)))) (?v_76 (bvor ?v_77 (bvor ?v_150 ?v_151))) (?v_156 (bvadd ?v_152 (_ bv1 64))) (?v_31 (bvshl ?v_29 ?v_0)) (?v_32 (bvashr ?v_30 ?v_0))) (let ((?v_155 (ite (= ?v_32 (_ bv0 64)) (_ bv1 1) (_ bv0 1))) (?v_154 (ite (bvslt ?v_31 (_ bv0 64)) (_ bv1 1) (_ bv0 1)))) (let ((?v_161 (ite (= (_ bv1 1) ?v_76) ?v_157 (ite (= (_ bv1 1) ?v_154) ?v_156 (ite (= (_ bv1 1) ?v_155) (bvsub (_ bv64 64) ?v_156) ?v_157)))) (?v_75 (bvor ?v_76 (bvor ?v_154 ?v_155))) (?v_160 (bvadd ?v_156 (_ bv1 64))) (?v_33 (bvshl ?v_31 ?v_0)) (?v_34 (bvashr ?v_32 ?v_0))) (let ((?v_159 (ite (= ?v_34 (_ bv0 64)) (_ bv1 1) (_ bv0 1))) (?v_158 (ite (bvslt ?v_33 (_ bv0 64)) (_ bv1 1) (_ bv0 1)))) (let ((?v_165 (ite (= (_ bv1 1) ?v_75) ?v_161 (ite (= (_ bv1 1) ?v_158) ?v_160 (ite (= (_ bv1 1) ?v_159) (bvsub (_ bv64 64) ?v_160) ?v_161)))) (?v_74 (bvor ?v_75 (bvor ?v_158 ?v_159))) (?v_164 (bvadd ?v_160 (_ bv1 64))) (?v_35 (bvshl ?v_33 ?v_0)) (?v_36 (bvashr ?v_34 ?v_0))) (let ((?v_163 (ite (= ?v_36 (_ bv0 64)) (_ bv1 1) (_ bv0 1))) (?v_162 (ite (bvslt ?v_35 (_ bv0 64)) (_ bv1 1) (_ bv0 1)))) (let ((?v_169 (ite (= (_ bv1 1) ?v_74) ?v_165 (ite (= (_ bv1 1) ?v_162) ?v_164 (ite (= (_ bv1 1) ?v_163) (bvsub (_ bv64 64) ?v_164) ?v_165)))) (?v_73 (bvor ?v_74 (bvor ?v_162 ?v_163))) (?v_168 (bvadd ?v_164 (_ bv1 64))) (?v_37 (bvshl ?v_35 ?v_0)) (?v_38 (bvashr ?v_36 ?v_0))) (let ((?v_167 (ite (= ?v_38 (_ bv0 64)) (_ bv1 1) (_ bv0 1))) (?v_166 (ite (bvslt ?v_37 (_ bv0 64)) (_ bv1 1) (_ bv0 1)))) (let ((?v_173 (ite (= (_ bv1 1) ?v_73) ?v_169 (ite (= (_ bv1 1) ?v_166) ?v_168 (ite (= (_ bv1 1) ?v_167) (bvsub (_ bv64 64) ?v_168) ?v_169)))) (?v_72 (bvor ?v_73 (bvor ?v_166 ?v_167))) (?v_172 (bvadd ?v_168 (_ bv1 64))) (?v_39 (bvshl ?v_37 ?v_0)) (?v_40 (bvashr ?v_38 ?v_0))) (let ((?v_171 (ite (= ?v_40 (_ bv0 64)) (_ bv1 1) (_ bv0 1))) (?v_170 (ite (bvslt ?v_39 (_ bv0 64)) (_ bv1 1) (_ bv0 1)))) (let ((?v_177 (ite (= (_ bv1 1) ?v_72) ?v_173 (ite (= (_ bv1 1) ?v_170) ?v_172 (ite (= (_ bv1 1) ?v_171) (bvsub (_ bv64 64) ?v_172) ?v_173)))) (?v_71 (bvor ?v_72 (bvor ?v_170 ?v_171))) (?v_176 (bvadd ?v_172 (_ bv1 64))) (?v_41 (bvshl ?v_39 ?v_0)) (?v_42 (bvashr ?v_40 ?v_0))) (let ((?v_175 (ite (= ?v_42 (_ bv0 64)) (_ bv1 1) (_ bv0 1))) (?v_174 (ite (bvslt ?v_41 (_ bv0 64)) (_ bv1 1) (_ bv0 1)))) (let ((?v_181 (ite (= (_ bv1 1) ?v_71) ?v_177 (ite (= (_ bv1 1) ?v_174) ?v_176 (ite (= (_ bv1 1) ?v_175) (bvsub (_ bv64 64) ?v_176) ?v_177)))) (?v_70 (bvor ?v_71 (bvor ?v_174 ?v_175))) (?v_180 (bvadd ?v_176 (_ bv1 64))) (?v_43 (bvshl ?v_41 ?v_0)) (?v_44 (bvashr ?v_42 ?v_0))) (let ((?v_179 (ite (= ?v_44 (_ bv0 64)) (_ bv1 1) (_ bv0 1))) (?v_178 (ite (bvslt ?v_43 (_ bv0 64)) (_ bv1 1) (_ bv0 1)))) (let ((?v_185 (ite (= (_ bv1 1) ?v_70) ?v_181 (ite (= (_ bv1 1) ?v_178) ?v_180 (ite (= (_ bv1 1) ?v_179) (bvsub (_ bv64 64) ?v_180) ?v_181)))) (?v_69 (bvor ?v_70 (bvor ?v_178 ?v_179))) (?v_184 (bvadd ?v_180 (_ bv1 64))) (?v_45 (bvshl ?v_43 ?v_0)) (?v_46 (bvashr ?v_44 ?v_0))) (let ((?v_183 (ite (= ?v_46 (_ bv0 64)) (_ bv1 1) (_ bv0 1))) (?v_182 (ite (bvslt ?v_45 (_ bv0 64)) (_ bv1 1) (_ bv0 1)))) (let ((?v_189 (ite (= (_ bv1 1) ?v_69) ?v_185 (ite (= (_ bv1 1) ?v_182) ?v_184 (ite (= (_ bv1 1) ?v_183) (bvsub (_ bv64 64) ?v_184) ?v_185)))) (?v_68 (bvor ?v_69 (bvor ?v_182 ?v_183))) (?v_188 (bvadd ?v_184 (_ bv1 64))) (?v_47 (bvshl ?v_45 ?v_0)) (?v_48 (bvashr ?v_46 ?v_0))) (let ((?v_187 (ite (= ?v_48 (_ bv0 64)) (_ bv1 1) (_ bv0 1))) (?v_186 (ite (bvslt ?v_47 (_ bv0 64)) (_ bv1 1) (_ bv0 1)))) (let ((?v_193 (ite (= (_ bv1 1) ?v_68) ?v_189 (ite (= (_ bv1 1) ?v_186) ?v_188 (ite (= (_ bv1 1) ?v_187) (bvsub (_ bv64 64) ?v_188) ?v_189)))) (?v_67 (bvor ?v_68 (bvor ?v_186 ?v_187))) (?v_192 (bvadd ?v_188 (_ bv1 64))) (?v_49 (bvshl ?v_47 ?v_0)) (?v_50 (bvashr ?v_48 ?v_0))) (let ((?v_191 (ite (= ?v_50 (_ bv0 64)) (_ bv1 1) (_ bv0 1))) (?v_190 (ite (bvslt ?v_49 (_ bv0 64)) (_ bv1 1) (_ bv0 1)))) (let ((?v_197 (ite (= (_ bv1 1) ?v_67) ?v_193 (ite (= (_ bv1 1) ?v_190) ?v_192 (ite (= (_ bv1 1) ?v_191) (bvsub (_ bv64 64) ?v_192) ?v_193)))) (?v_66 (bvor ?v_67 (bvor ?v_190 ?v_191))) (?v_196 (bvadd ?v_192 (_ bv1 64))) (?v_51 (bvshl ?v_49 ?v_0)) (?v_52 (bvashr ?v_50 ?v_0))) (let ((?v_195 (ite (= ?v_52 (_ bv0 64)) (_ bv1 1) (_ bv0 1))) (?v_194 (ite (bvslt ?v_51 (_ bv0 64)) (_ bv1 1) (_ bv0 1)))) (let ((?v_201 (ite (= (_ bv1 1) ?v_66) ?v_197 (ite (= (_ bv1 1) ?v_194) ?v_196 (ite (= (_ bv1 1) ?v_195) (bvsub (_ bv64 64) ?v_196) ?v_197)))) (?v_65 (bvor ?v_66 (bvor ?v_194 ?v_195))) (?v_200 (bvadd ?v_196 (_ bv1 64))) (?v_53 (bvshl ?v_51 ?v_0)) (?v_54 (bvashr ?v_52 ?v_0))) (let ((?v_199 (ite (= ?v_54 (_ bv0 64)) (_ bv1 1) (_ bv0 1))) (?v_198 (ite (bvslt ?v_53 (_ bv0 64)) (_ bv1 1) (_ bv0 1)))) (let ((?v_205 (ite (= (_ bv1 1) ?v_65) ?v_201 (ite (= (_ bv1 1) ?v_198) ?v_200 (ite (= (_ bv1 1) ?v_199) (bvsub (_ bv64 64) ?v_200) ?v_201)))) (?v_64 (bvor ?v_65 (bvor ?v_198 ?v_199))) (?v_204 (bvadd ?v_200 (_ bv1 64))) (?v_55 (bvshl ?v_53 ?v_0)) (?v_56 (bvashr ?v_54 ?v_0))) (let ((?v_203 (ite (= ?v_56 (_ bv0 64)) (_ bv1 1) (_ bv0 1))) (?v_202 (ite (bvslt ?v_55 (_ bv0 64)) (_ bv1 1) (_ bv0 1)))) (let ((?v_209 (ite (= (_ bv1 1) ?v_64) ?v_205 (ite (= (_ bv1 1) ?v_202) ?v_204 (ite (= (_ bv1 1) ?v_203) (bvsub (_ bv64 64) ?v_204) ?v_205)))) (?v_63 (bvor ?v_64 (bvor ?v_202 ?v_203))) (?v_208 (bvadd ?v_204 (_ bv1 64))) (?v_57 (bvshl ?v_55 ?v_0)) (?v_58 (bvashr ?v_56 ?v_0))) (let ((?v_207 (ite (= ?v_58 (_ bv0 64)) (_ bv1 1) (_ bv0 1))) (?v_206 (ite (bvslt ?v_57 (_ bv0 64)) (_ bv1 1) (_ bv0 1)))) (let ((?v_213 (ite (= (_ bv1 1) ?v_63) ?v_209 (ite (= (_ bv1 1) ?v_206) ?v_208 (ite (= (_ bv1 1) ?v_207) (bvsub (_ bv64 64) ?v_208) ?v_209)))) (?v_62 (bvor ?v_63 (bvor ?v_206 ?v_207))) (?v_212 (bvadd ?v_208 (_ bv1 64))) (?v_59 (bvshl ?v_57 ?v_0)) (?v_60 (bvashr ?v_58 ?v_0))) (let ((?v_211 (ite (= ?v_60 (_ bv0 64)) (_ bv1 1) (_ bv0 1))) (?v_210 (ite (bvslt ?v_59 (_ bv0 64)) (_ bv1 1) (_ bv0 1)))) (let ((?v_217 (ite (= (_ bv1 1) ?v_62) ?v_213 (ite (= (_ bv1 1) ?v_210) ?v_212 (ite (= (_ bv1 1) ?v_211) (bvsub (_ bv64 64) ?v_212) ?v_213)))) (?v_61 (bvor ?v_62 (bvor ?v_210 ?v_211))) (?v_216 (bvadd ?v_212 (_ bv1 64))) (?v_218 (bvshl ?v_59 ?v_0)) (?v_219 (bvashr ?v_60 ?v_0))) (let ((?v_215 (ite (= ?v_219 (_ bv0 64)) (_ bv1 1) (_ bv0 1))) (?v_214 (ite (bvslt ?v_218 (_ bv0 64)) (_ bv1 1) (_ bv0 1)))) (let ((?v_221 (ite (= (_ bv1 1) ?v_61) ?v_217 (ite (= (_ bv1 1) ?v_214) ?v_216 (ite (= (_ bv1 1) ?v_215) (bvsub (_ bv64 64) ?v_216) ?v_217)))) (?v_220 (bvadd ?v_216 (_ bv1 64))) (?v_347 (ite (= (bvand x (bvshl (_ bv1 64) ((_ zero_extend 58) (_ bv63 6)))) (_ bv0 64)) (_ bv1 1) (_ bv0 1)))) (let ((?v_348 (bvor (_ bv0 1) (bvnot ?v_347)))) (let ((?v_349 (ite (= (_ bv1 1) ?v_347) (ite (= (_ bv1 1) ?v_348) (_ bv0 64) ?v_96) (_ bv0 64))) (?v_345 (ite (= (bvand x (bvshl (_ bv1 64) ((_ zero_extend 58) (_ bv62 6)))) (_ bv0 64)) (_ bv1 1) (_ bv0 1)))) (let ((?v_346 (bvor ?v_348 (bvnot ?v_345)))) (let ((?v_350 (ite (= (_ bv1 1) ?v_345) (ite (= (_ bv1 1) ?v_346) ?v_349 (bvadd ?v_349 (_ bv1 64))) ?v_349)) (?v_343 (ite (= (bvand x (bvshl (_ bv1 64) ((_ zero_extend 58) (_ bv61 6)))) (_ bv0 64)) (_ bv1 1) (_ bv0 1)))) (let ((?v_344 (bvor ?v_346 (bvnot ?v_343)))) (let ((?v_351 (ite (= (_ bv1 1) ?v_343) (ite (= (_ bv1 1) ?v_344) ?v_350 (bvadd ?v_350 (_ bv1 64))) ?v_350)) (?v_341 (ite (= (bvand x (bvshl (_ bv1 64) ((_ zero_extend 58) (_ bv60 6)))) (_ bv0 64)) (_ bv1 1) (_ bv0 1)))) (let ((?v_342 (bvor ?v_344 (bvnot ?v_341)))) (let ((?v_352 (ite (= (_ bv1 1) ?v_341) (ite (= (_ bv1 1) ?v_342) ?v_351 (bvadd ?v_351 (_ bv1 64))) ?v_351)) (?v_339 (ite (= (bvand x (bvshl (_ bv1 64) ((_ zero_extend 58) (_ bv59 6)))) (_ bv0 64)) (_ bv1 1) (_ bv0 1)))) (let ((?v_340 (bvor ?v_342 (bvnot ?v_339)))) (let ((?v_353 (ite (= (_ bv1 1) ?v_339) (ite (= (_ bv1 1) ?v_340) ?v_352 (bvadd ?v_352 (_ bv1 64))) ?v_352)) (?v_337 (ite (= (bvand x (bvshl (_ bv1 64) ((_ zero_extend 58) (_ bv58 6)))) (_ bv0 64)) (_ bv1 1) (_ bv0 1)))) (let ((?v_338 (bvor ?v_340 (bvnot ?v_337)))) (let ((?v_354 (ite (= (_ bv1 1) ?v_337) (ite (= (_ bv1 1) ?v_338) ?v_353 (bvadd ?v_353 (_ bv1 64))) ?v_353)) (?v_335 (ite (= (bvand x (bvshl (_ bv1 64) ((_ zero_extend 58) (_ bv57 6)))) (_ bv0 64)) (_ bv1 1) (_ bv0 1)))) (let ((?v_336 (bvor ?v_338 (bvnot ?v_335)))) (let ((?v_355 (ite (= (_ bv1 1) ?v_335) (ite (= (_ bv1 1) ?v_336) ?v_354 (bvadd ?v_354 (_ bv1 64))) ?v_354)) (?v_333 (ite (= (bvand x (bvshl (_ bv1 64) ((_ zero_extend 58) (_ bv56 6)))) (_ bv0 64)) (_ bv1 1) (_ bv0 1)))) (let ((?v_334 (bvor ?v_336 (bvnot ?v_333)))) (let ((?v_356 (ite (= (_ bv1 1) ?v_333) (ite (= (_ bv1 1) ?v_334) ?v_355 (bvadd ?v_355 (_ bv1 64))) ?v_355)) (?v_331 (ite (= (bvand x (bvshl (_ bv1 64) ((_ zero_extend 58) (_ bv55 6)))) (_ bv0 64)) (_ bv1 1) (_ bv0 1)))) (let ((?v_332 (bvor ?v_334 (bvnot ?v_331)))) (let ((?v_357 (ite (= (_ bv1 1) ?v_331) (ite (= (_ bv1 1) ?v_332) ?v_356 (bvadd ?v_356 (_ bv1 64))) ?v_356)) (?v_329 (ite (= (bvand x (bvshl (_ bv1 64) ((_ zero_extend 58) (_ bv54 6)))) (_ bv0 64)) (_ bv1 1) (_ bv0 1)))) (let ((?v_330 (bvor ?v_332 (bvnot ?v_329)))) (let ((?v_358 (ite (= (_ bv1 1) ?v_329) (ite (= (_ bv1 1) ?v_330) ?v_357 (bvadd ?v_357 (_ bv1 64))) ?v_357)) (?v_327 (ite (= (bvand x (bvshl (_ bv1 64) ((_ zero_extend 58) (_ bv53 6)))) (_ bv0 64)) (_ bv1 1) (_ bv0 1)))) (let ((?v_328 (bvor ?v_330 (bvnot ?v_327)))) (let ((?v_359 (ite (= (_ bv1 1) ?v_327) (ite (= (_ bv1 1) ?v_328) ?v_358 (bvadd ?v_358 (_ bv1 64))) ?v_358)) (?v_325 (ite (= (bvand x (bvshl (_ bv1 64) ((_ zero_extend 58) (_ bv52 6)))) (_ bv0 64)) (_ bv1 1) (_ bv0 1)))) (let ((?v_326 (bvor ?v_328 (bvnot ?v_325)))) (let ((?v_360 (ite (= (_ bv1 1) ?v_325) (ite (= (_ bv1 1) ?v_326) ?v_359 (bvadd ?v_359 (_ bv1 64))) ?v_359)) (?v_323 (ite (= (bvand x (bvshl (_ bv1 64) ((_ zero_extend 58) (_ bv51 6)))) (_ bv0 64)) (_ bv1 1) (_ bv0 1)))) (let ((?v_324 (bvor ?v_326 (bvnot ?v_323)))) (let ((?v_361 (ite (= (_ bv1 1) ?v_323) (ite (= (_ bv1 1) ?v_324) ?v_360 (bvadd ?v_360 (_ bv1 64))) ?v_360)) (?v_321 (ite (= (bvand x (bvshl (_ bv1 64) ((_ zero_extend 58) (_ bv50 6)))) (_ bv0 64)) (_ bv1 1) (_ bv0 1)))) (let ((?v_322 (bvor ?v_324 (bvnot ?v_321)))) (let ((?v_362 (ite (= (_ bv1 1) ?v_321) (ite (= (_ bv1 1) ?v_322) ?v_361 (bvadd ?v_361 (_ bv1 64))) ?v_361)) (?v_319 (ite (= (bvand x (bvshl (_ bv1 64) ((_ zero_extend 58) (_ bv49 6)))) (_ bv0 64)) (_ bv1 1) (_ bv0 1)))) (let ((?v_320 (bvor ?v_322 (bvnot ?v_319)))) (let ((?v_363 (ite (= (_ bv1 1) ?v_319) (ite (= (_ bv1 1) ?v_320) ?v_362 (bvadd ?v_362 (_ bv1 64))) ?v_362)) (?v_317 (ite (= (bvand x (bvshl (_ bv1 64) ((_ zero_extend 58) (_ bv48 6)))) (_ bv0 64)) (_ bv1 1) (_ bv0 1)))) (let ((?v_318 (bvor ?v_320 (bvnot ?v_317)))) (let ((?v_364 (ite (= (_ bv1 1) ?v_317) (ite (= (_ bv1 1) ?v_318) ?v_363 (bvadd ?v_363 (_ bv1 64))) ?v_363)) (?v_315 (ite (= (bvand x (bvshl (_ bv1 64) ((_ zero_extend 58) (_ bv47 6)))) (_ bv0 64)) (_ bv1 1) (_ bv0 1)))) (let ((?v_316 (bvor ?v_318 (bvnot ?v_315)))) (let ((?v_365 (ite (= (_ bv1 1) ?v_315) (ite (= (_ bv1 1) ?v_316) ?v_364 (bvadd ?v_364 (_ bv1 64))) ?v_364)) (?v_313 (ite (= (bvand x (bvshl (_ bv1 64) ((_ zero_extend 58) (_ bv46 6)))) (_ bv0 64)) (_ bv1 1) (_ bv0 1)))) (let ((?v_314 (bvor ?v_316 (bvnot ?v_313)))) (let ((?v_366 (ite (= (_ bv1 1) ?v_313) (ite (= (_ bv1 1) ?v_314) ?v_365 (bvadd ?v_365 (_ bv1 64))) ?v_365)) (?v_311 (ite (= (bvand x (bvshl (_ bv1 64) ((_ zero_extend 58) (_ bv45 6)))) (_ bv0 64)) (_ bv1 1) (_ bv0 1)))) (let ((?v_312 (bvor ?v_314 (bvnot ?v_311)))) (let ((?v_367 (ite (= (_ bv1 1) ?v_311) (ite (= (_ bv1 1) ?v_312) ?v_366 (bvadd ?v_366 (_ bv1 64))) ?v_366)) (?v_309 (ite (= (bvand x (bvshl (_ bv1 64) ((_ zero_extend 58) (_ bv44 6)))) (_ bv0 64)) (_ bv1 1) (_ bv0 1)))) (let ((?v_310 (bvor ?v_312 (bvnot ?v_309)))) (let ((?v_368 (ite (= (_ bv1 1) ?v_309) (ite (= (_ bv1 1) ?v_310) ?v_367 (bvadd ?v_367 (_ bv1 64))) ?v_367)) (?v_307 (ite (= (bvand x (bvshl (_ bv1 64) ((_ zero_extend 58) (_ bv43 6)))) (_ bv0 64)) (_ bv1 1) (_ bv0 1)))) (let ((?v_308 (bvor ?v_310 (bvnot ?v_307)))) (let ((?v_369 (ite (= (_ bv1 1) ?v_307) (ite (= (_ bv1 1) ?v_308) ?v_368 (bvadd ?v_368 (_ bv1 64))) ?v_368)) (?v_305 (ite (= (bvand x (bvshl (_ bv1 64) ((_ zero_extend 58) (_ bv42 6)))) (_ bv0 64)) (_ bv1 1) (_ bv0 1)))) (let ((?v_306 (bvor ?v_308 (bvnot ?v_305)))) (let ((?v_370 (ite (= (_ bv1 1) ?v_305) (ite (= (_ bv1 1) ?v_306) ?v_369 (bvadd ?v_369 (_ bv1 64))) ?v_369)) (?v_303 (ite (= (bvand x (bvshl (_ bv1 64) ((_ zero_extend 58) (_ bv41 6)))) (_ bv0 64)) (_ bv1 1) (_ bv0 1)))) (let ((?v_304 (bvor ?v_306 (bvnot ?v_303)))) (let ((?v_371 (ite (= (_ bv1 1) ?v_303) (ite (= (_ bv1 1) ?v_304) ?v_370 (bvadd ?v_370 (_ bv1 64))) ?v_370)) (?v_301 (ite (= (bvand x (bvshl (_ bv1 64) ((_ zero_extend 58) (_ bv40 6)))) (_ bv0 64)) (_ bv1 1) (_ bv0 1)))) (let ((?v_302 (bvor ?v_304 (bvnot ?v_301)))) (let ((?v_372 (ite (= (_ bv1 1) ?v_301) (ite (= (_ bv1 1) ?v_302) ?v_371 (bvadd ?v_371 (_ bv1 64))) ?v_371)) (?v_299 (ite (= (bvand x (bvshl (_ bv1 64) ((_ zero_extend 58) (_ bv39 6)))) (_ bv0 64)) (_ bv1 1) (_ bv0 1)))) (let ((?v_300 (bvor ?v_302 (bvnot ?v_299)))) (let ((?v_373 (ite (= (_ bv1 1) ?v_299) (ite (= (_ bv1 1) ?v_300) ?v_372 (bvadd ?v_372 (_ bv1 64))) ?v_372)) (?v_297 (ite (= (bvand x (bvshl (_ bv1 64) ((_ zero_extend 58) (_ bv38 6)))) (_ bv0 64)) (_ bv1 1) (_ bv0 1)))) (let ((?v_298 (bvor ?v_300 (bvnot ?v_297)))) (let ((?v_374 (ite (= (_ bv1 1) ?v_297) (ite (= (_ bv1 1) ?v_298) ?v_373 (bvadd ?v_373 (_ bv1 64))) ?v_373)) (?v_295 (ite (= (bvand x (bvshl (_ bv1 64) ((_ zero_extend 58) (_ bv37 6)))) (_ bv0 64)) (_ bv1 1) (_ bv0 1)))) (let ((?v_296 (bvor ?v_298 (bvnot ?v_295)))) (let ((?v_375 (ite (= (_ bv1 1) ?v_295) (ite (= (_ bv1 1) ?v_296) ?v_374 (bvadd ?v_374 (_ bv1 64))) ?v_374)) (?v_293 (ite (= (bvand x (bvshl (_ bv1 64) ((_ zero_extend 58) (_ bv36 6)))) (_ bv0 64)) (_ bv1 1) (_ bv0 1)))) (let ((?v_294 (bvor ?v_296 (bvnot ?v_293)))) (let ((?v_376 (ite (= (_ bv1 1) ?v_293) (ite (= (_ bv1 1) ?v_294) ?v_375 (bvadd ?v_375 (_ bv1 64))) ?v_375)) (?v_291 (ite (= (bvand x (bvshl (_ bv1 64) ((_ zero_extend 58) (_ bv35 6)))) (_ bv0 64)) (_ bv1 1) (_ bv0 1)))) (let ((?v_292 (bvor ?v_294 (bvnot ?v_291)))) (let ((?v_377 (ite (= (_ bv1 1) ?v_291) (ite (= (_ bv1 1) ?v_292) ?v_376 (bvadd ?v_376 (_ bv1 64))) ?v_376)) (?v_289 (ite (= (bvand x (bvshl (_ bv1 64) ((_ zero_extend 58) (_ bv34 6)))) (_ bv0 64)) (_ bv1 1) (_ bv0 1)))) (let ((?v_290 (bvor ?v_292 (bvnot ?v_289)))) (let ((?v_378 (ite (= (_ bv1 1) ?v_289) (ite (= (_ bv1 1) ?v_290) ?v_377 (bvadd ?v_377 (_ bv1 64))) ?v_377)) (?v_287 (ite (= (bvand x (bvshl (_ bv1 64) ((_ zero_extend 58) (_ bv33 6)))) (_ bv0 64)) (_ bv1 1) (_ bv0 1)))) (let ((?v_288 (bvor ?v_290 (bvnot ?v_287)))) (let ((?v_379 (ite (= (_ bv1 1) ?v_287) (ite (= (_ bv1 1) ?v_288) ?v_378 (bvadd ?v_378 (_ bv1 64))) ?v_378)) (?v_285 (ite (= (bvand x (bvshl (_ bv1 64) ((_ zero_extend 58) (_ bv32 6)))) (_ bv0 64)) (_ bv1 1) (_ bv0 1)))) (let ((?v_286 (bvor ?v_288 (bvnot ?v_285)))) (let ((?v_380 (ite (= (_ bv1 1) ?v_285) (ite (= (_ bv1 1) ?v_286) ?v_379 (bvadd ?v_379 (_ bv1 64))) ?v_379)) (?v_283 (ite (= (bvand x (bvshl (_ bv1 64) ((_ zero_extend 58) (_ bv31 6)))) (_ bv0 64)) (_ bv1 1) (_ bv0 1)))) (let ((?v_284 (bvor ?v_286 (bvnot ?v_283)))) (let ((?v_381 (ite (= (_ bv1 1) ?v_283) (ite (= (_ bv1 1) ?v_284) ?v_380 (bvadd ?v_380 (_ bv1 64))) ?v_380)) (?v_281 (ite (= (bvand x (bvshl (_ bv1 64) ((_ zero_extend 58) (_ bv30 6)))) (_ bv0 64)) (_ bv1 1) (_ bv0 1)))) (let ((?v_282 (bvor ?v_284 (bvnot ?v_281)))) (let ((?v_382 (ite (= (_ bv1 1) ?v_281) (ite (= (_ bv1 1) ?v_282) ?v_381 (bvadd ?v_381 (_ bv1 64))) ?v_381)) (?v_279 (ite (= (bvand x (bvshl (_ bv1 64) ((_ zero_extend 58) (_ bv29 6)))) (_ bv0 64)) (_ bv1 1) (_ bv0 1)))) (let ((?v_280 (bvor ?v_282 (bvnot ?v_279)))) (let ((?v_383 (ite (= (_ bv1 1) ?v_279) (ite (= (_ bv1 1) ?v_280) ?v_382 (bvadd ?v_382 (_ bv1 64))) ?v_382)) (?v_277 (ite (= (bvand x (bvshl (_ bv1 64) ((_ zero_extend 58) (_ bv28 6)))) (_ bv0 64)) (_ bv1 1) (_ bv0 1)))) (let ((?v_278 (bvor ?v_280 (bvnot ?v_277)))) (let ((?v_384 (ite (= (_ bv1 1) ?v_277) (ite (= (_ bv1 1) ?v_278) ?v_383 (bvadd ?v_383 (_ bv1 64))) ?v_383)) (?v_275 (ite (= (bvand x (bvshl (_ bv1 64) ((_ zero_extend 58) (_ bv27 6)))) (_ bv0 64)) (_ bv1 1) (_ bv0 1)))) (let ((?v_276 (bvor ?v_278 (bvnot ?v_275)))) (let ((?v_385 (ite (= (_ bv1 1) ?v_275) (ite (= (_ bv1 1) ?v_276) ?v_384 (bvadd ?v_384 (_ bv1 64))) ?v_384)) (?v_273 (ite (= (bvand x (bvshl (_ bv1 64) ((_ zero_extend 58) (_ bv26 6)))) (_ bv0 64)) (_ bv1 1) (_ bv0 1)))) (let ((?v_274 (bvor ?v_276 (bvnot ?v_273)))) (let ((?v_386 (ite (= (_ bv1 1) ?v_273) (ite (= (_ bv1 1) ?v_274) ?v_385 (bvadd ?v_385 (_ bv1 64))) ?v_385)) (?v_271 (ite (= (bvand x (bvshl (_ bv1 64) ((_ zero_extend 58) (_ bv25 6)))) (_ bv0 64)) (_ bv1 1) (_ bv0 1)))) (let ((?v_272 (bvor ?v_274 (bvnot ?v_271)))) (let ((?v_387 (ite (= (_ bv1 1) ?v_271) (ite (= (_ bv1 1) ?v_272) ?v_386 (bvadd ?v_386 (_ bv1 64))) ?v_386)) (?v_269 (ite (= (bvand x (bvshl (_ bv1 64) ((_ zero_extend 58) (_ bv24 6)))) (_ bv0 64)) (_ bv1 1) (_ bv0 1)))) (let ((?v_270 (bvor ?v_272 (bvnot ?v_269)))) (let ((?v_388 (ite (= (_ bv1 1) ?v_269) (ite (= (_ bv1 1) ?v_270) ?v_387 (bvadd ?v_387 (_ bv1 64))) ?v_387)) (?v_267 (ite (= (bvand x (bvshl (_ bv1 64) ((_ zero_extend 58) (_ bv23 6)))) (_ bv0 64)) (_ bv1 1) (_ bv0 1)))) (let ((?v_268 (bvor ?v_270 (bvnot ?v_267)))) (let ((?v_389 (ite (= (_ bv1 1) ?v_267) (ite (= (_ bv1 1) ?v_268) ?v_388 (bvadd ?v_388 (_ bv1 64))) ?v_388)) (?v_265 (ite (= (bvand x (bvshl (_ bv1 64) ((_ zero_extend 58) (_ bv22 6)))) (_ bv0 64)) (_ bv1 1) (_ bv0 1)))) (let ((?v_266 (bvor ?v_268 (bvnot ?v_265)))) (let ((?v_390 (ite (= (_ bv1 1) ?v_265) (ite (= (_ bv1 1) ?v_266) ?v_389 (bvadd ?v_389 (_ bv1 64))) ?v_389)) (?v_263 (ite (= (bvand x (bvshl (_ bv1 64) ((_ zero_extend 58) (_ bv21 6)))) (_ bv0 64)) (_ bv1 1) (_ bv0 1)))) (let ((?v_264 (bvor ?v_266 (bvnot ?v_263)))) (let ((?v_391 (ite (= (_ bv1 1) ?v_263) (ite (= (_ bv1 1) ?v_264) ?v_390 (bvadd ?v_390 (_ bv1 64))) ?v_390)) (?v_261 (ite (= (bvand x (bvshl (_ bv1 64) ((_ zero_extend 58) (_ bv20 6)))) (_ bv0 64)) (_ bv1 1) (_ bv0 1)))) (let ((?v_262 (bvor ?v_264 (bvnot ?v_261)))) (let ((?v_392 (ite (= (_ bv1 1) ?v_261) (ite (= (_ bv1 1) ?v_262) ?v_391 (bvadd ?v_391 (_ bv1 64))) ?v_391)) (?v_259 (ite (= (bvand x (bvshl (_ bv1 64) ((_ zero_extend 58) (_ bv19 6)))) (_ bv0 64)) (_ bv1 1) (_ bv0 1)))) (let ((?v_260 (bvor ?v_262 (bvnot ?v_259)))) (let ((?v_393 (ite (= (_ bv1 1) ?v_259) (ite (= (_ bv1 1) ?v_260) ?v_392 (bvadd ?v_392 (_ bv1 64))) ?v_392)) (?v_257 (ite (= (bvand x (bvshl (_ bv1 64) ((_ zero_extend 58) (_ bv18 6)))) (_ bv0 64)) (_ bv1 1) (_ bv0 1)))) (let ((?v_258 (bvor ?v_260 (bvnot ?v_257)))) (let ((?v_394 (ite (= (_ bv1 1) ?v_257) (ite (= (_ bv1 1) ?v_258) ?v_393 (bvadd ?v_393 (_ bv1 64))) ?v_393)) (?v_255 (ite (= (bvand x (bvshl (_ bv1 64) ((_ zero_extend 58) (_ bv17 6)))) (_ bv0 64)) (_ bv1 1) (_ bv0 1)))) (let ((?v_256 (bvor ?v_258 (bvnot ?v_255)))) (let ((?v_395 (ite (= (_ bv1 1) ?v_255) (ite (= (_ bv1 1) ?v_256) ?v_394 (bvadd ?v_394 (_ bv1 64))) ?v_394)) (?v_253 (ite (= (bvand x (bvshl (_ bv1 64) ((_ zero_extend 58) (_ bv16 6)))) (_ bv0 64)) (_ bv1 1) (_ bv0 1)))) (let ((?v_254 (bvor ?v_256 (bvnot ?v_253)))) (let ((?v_396 (ite (= (_ bv1 1) ?v_253) (ite (= (_ bv1 1) ?v_254) ?v_395 (bvadd ?v_395 (_ bv1 64))) ?v_395)) (?v_251 (ite (= (bvand x (bvshl (_ bv1 64) ((_ zero_extend 58) (_ bv15 6)))) (_ bv0 64)) (_ bv1 1) (_ bv0 1)))) (let ((?v_252 (bvor ?v_254 (bvnot ?v_251)))) (let ((?v_397 (ite (= (_ bv1 1) ?v_251) (ite (= (_ bv1 1) ?v_252) ?v_396 (bvadd ?v_396 (_ bv1 64))) ?v_396)) (?v_249 (ite (= (bvand x (bvshl (_ bv1 64) ((_ zero_extend 58) (_ bv14 6)))) (_ bv0 64)) (_ bv1 1) (_ bv0 1)))) (let ((?v_250 (bvor ?v_252 (bvnot ?v_249)))) (let ((?v_398 (ite (= (_ bv1 1) ?v_249) (ite (= (_ bv1 1) ?v_250) ?v_397 (bvadd ?v_397 (_ bv1 64))) ?v_397)) (?v_247 (ite (= (bvand x (bvshl (_ bv1 64) ((_ zero_extend 58) (_ bv13 6)))) (_ bv0 64)) (_ bv1 1) (_ bv0 1)))) (let ((?v_248 (bvor ?v_250 (bvnot ?v_247)))) (let ((?v_399 (ite (= (_ bv1 1) ?v_247) (ite (= (_ bv1 1) ?v_248) ?v_398 (bvadd ?v_398 (_ bv1 64))) ?v_398)) (?v_245 (ite (= (bvand x (bvshl (_ bv1 64) ((_ zero_extend 58) (_ bv12 6)))) (_ bv0 64)) (_ bv1 1) (_ bv0 1)))) (let ((?v_246 (bvor ?v_248 (bvnot ?v_245)))) (let ((?v_400 (ite (= (_ bv1 1) ?v_245) (ite (= (_ bv1 1) ?v_246) ?v_399 (bvadd ?v_399 (_ bv1 64))) ?v_399)) (?v_243 (ite (= (bvand x (bvshl (_ bv1 64) ((_ zero_extend 58) (_ bv11 6)))) (_ bv0 64)) (_ bv1 1) (_ bv0 1)))) (let ((?v_244 (bvor ?v_246 (bvnot ?v_243)))) (let ((?v_401 (ite (= (_ bv1 1) ?v_243) (ite (= (_ bv1 1) ?v_244) ?v_400 (bvadd ?v_400 (_ bv1 64))) ?v_400)) (?v_241 (ite (= (bvand x (bvshl (_ bv1 64) ((_ zero_extend 58) (_ bv10 6)))) (_ bv0 64)) (_ bv1 1) (_ bv0 1)))) (let ((?v_242 (bvor ?v_244 (bvnot ?v_241)))) (let ((?v_402 (ite (= (_ bv1 1) ?v_241) (ite (= (_ bv1 1) ?v_242) ?v_401 (bvadd ?v_401 (_ bv1 64))) ?v_401)) (?v_239 (ite (= (bvand x (bvshl (_ bv1 64) ((_ zero_extend 58) (_ bv9 6)))) (_ bv0 64)) (_ bv1 1) (_ bv0 1)))) (let ((?v_240 (bvor ?v_242 (bvnot ?v_239)))) (let ((?v_403 (ite (= (_ bv1 1) ?v_239) (ite (= (_ bv1 1) ?v_240) ?v_402 (bvadd ?v_402 (_ bv1 64))) ?v_402)) (?v_237 (ite (= (bvand x (bvshl (_ bv1 64) ((_ zero_extend 58) (_ bv8 6)))) (_ bv0 64)) (_ bv1 1) (_ bv0 1)))) (let ((?v_238 (bvor ?v_240 (bvnot ?v_237)))) (let ((?v_404 (ite (= (_ bv1 1) ?v_237) (ite (= (_ bv1 1) ?v_238) ?v_403 (bvadd ?v_403 (_ bv1 64))) ?v_403)) (?v_235 (ite (= (bvand x (bvshl (_ bv1 64) ((_ zero_extend 58) (_ bv7 6)))) (_ bv0 64)) (_ bv1 1) (_ bv0 1)))) (let ((?v_236 (bvor ?v_238 (bvnot ?v_235)))) (let ((?v_405 (ite (= (_ bv1 1) ?v_235) (ite (= (_ bv1 1) ?v_236) ?v_404 (bvadd ?v_404 (_ bv1 64))) ?v_404)) (?v_233 (ite (= (bvand x (bvshl (_ bv1 64) ((_ zero_extend 58) (_ bv6 6)))) (_ bv0 64)) (_ bv1 1) (_ bv0 1)))) (let ((?v_234 (bvor ?v_236 (bvnot ?v_233)))) (let ((?v_406 (ite (= (_ bv1 1) ?v_233) (ite (= (_ bv1 1) ?v_234) ?v_405 (bvadd ?v_405 (_ bv1 64))) ?v_405)) (?v_231 (ite (= (bvand x (bvshl (_ bv1 64) ((_ zero_extend 58) (_ bv5 6)))) (_ bv0 64)) (_ bv1 1) (_ bv0 1)))) (let ((?v_232 (bvor ?v_234 (bvnot ?v_231)))) (let ((?v_407 (ite (= (_ bv1 1) ?v_231) (ite (= (_ bv1 1) ?v_232) ?v_406 (bvadd ?v_406 (_ bv1 64))) ?v_406)) (?v_229 (ite (= (bvand x (bvshl (_ bv1 64) ((_ zero_extend 58) (_ bv4 6)))) (_ bv0 64)) (_ bv1 1) (_ bv0 1)))) (let ((?v_230 (bvor ?v_232 (bvnot ?v_229)))) (let ((?v_408 (ite (= (_ bv1 1) ?v_229) (ite (= (_ bv1 1) ?v_230) ?v_407 (bvadd ?v_407 (_ bv1 64))) ?v_407)) (?v_227 (ite (= (bvand x (bvshl (_ bv1 64) ((_ zero_extend 58) (_ bv3 6)))) (_ bv0 64)) (_ bv1 1) (_ bv0 1)))) (let ((?v_228 (bvor ?v_230 (bvnot ?v_227)))) (let ((?v_409 (ite (= (_ bv1 1) ?v_227) (ite (= (_ bv1 1) ?v_228) ?v_408 (bvadd ?v_408 (_ bv1 64))) ?v_408)) (?v_225 (ite (= (bvand x (bvshl (_ bv1 64) ((_ zero_extend 58) (_ bv2 6)))) (_ bv0 64)) (_ bv1 1) (_ bv0 1)))) (let ((?v_226 (bvor ?v_228 (bvnot ?v_225)))) (let ((?v_410 (ite (= (_ bv1 1) ?v_225) (ite (= (_ bv1 1) ?v_226) ?v_409 (bvadd ?v_409 (_ bv1 64))) ?v_409)) (?v_223 (ite (= (bvand x (bvshl (_ bv1 64) ?v_0)) (_ bv0 64)) (_ bv1 1) (_ bv0 1)))) (let ((?v_224 (bvor ?v_226 (bvnot ?v_223)))) (let ((?v_411 (ite (= (_ bv1 1) ?v_223) (ite (= (_ bv1 1) ?v_224) ?v_410 (bvadd ?v_410 (_ bv1 64))) ?v_410)) (?v_222 (ite (= (bvand x (bvshl (_ bv1 64) ((_ zero_extend 58) (_ bv0 6)))) (_ bv0 64)) (_ bv1 1) (_ bv0 1)))) (not (= (bvnot (ite (= (ite (= (_ bv1 1) (bvor ?v_61 (bvor ?v_214 ?v_215))) ?v_221 (ite (= (_ bv1 1) (ite (bvslt (bvshl ?v_218 ?v_0) (_ bv0 64)) (_ bv1 1) (_ bv0 1))) ?v_220 (ite (= (_ bv1 1) (ite (= (bvashr ?v_219 ?v_0) (_ bv0 64)) (_ bv1 1) (_ bv0 1))) (bvsub (_ bv64 64) ?v_220) ?v_221))) (ite (= (_ bv1 1) ?v_222) (ite (= (_ bv1 1) (bvor ?v_224 (bvnot ?v_222))) ?v_411 (bvadd ?v_411 (_ bv1 64))) ?v_411)) (_ bv1 1) (_ bv0 1))) (_ bv0 1)))))))))))))))))))))))))))))))))))))))))))))))))))))))))))))))))))))))))))))))))))))))))))))))))))))))))))))))))))))))))))))))))))))))))))))))))))))))))))))))))))))))))))))))))))))))))))))))))))
(check-sat)
(exit)
